NAME : a280
COMMENT : Tour length 3356
TYPE : TOUR
DIMENSION : 280
TOUR_SECTION
1
280
2
242
241
237
236
235
234
233
232
229
228
227
226
225
224
223
221
222
219
220
217
218
215
216
213
214
211
212
207
210
249
256
257
254
255
252
253
208
209
230
251
250
247
246
231
238
239
240
245
244
243
248
278
4
277
276
275
274
273
272
271
16
17
18
133
132
19
20
21
130
131
129
128
127
126
125
30
31
32
33
34
35
36
37
38
39
40
41
42
43
60
61
59
44
45
56
57
58
64
65
66
67
70
71
72
73
74
75
76
77
78
79
80
81
82
83
84
85
86
116
115
114
113
87
88
112
111
110
108
104
105
103
102
101
100
99
98
93
94
95
96
97
92
91
90
89
109
107
106
173
174
163
164
165
166
167
168
169
170
171
172
162
161
175
160
159
158
157
119
120
121
122
123
124
154
155
153
156
152
151
177
176
181
180
179
178
150
139
138
137
267
266
140
141
148
147
142
143
144
145
146
199
200
201
196
195
194
197
198
202
203
204
205
206
264
263
262
261
260
259
258
279
3
5
6
7
8
10
11
12
13
14
15
24
23
25
22
26
27
28
29
134
135
136
268
269
270
265
149
182
183
184
185
187
186
190
189
188
191
192
193
117
118
62
63
68
69
55
54
53
52
51
50
49
48
47
46
9
1
-1
EOF